(set-logic HORN)
(declare-fun assign_22_5_139_abs01 (Int Int Int Int Int Int Int) Bool)
(declare-fun assert_21_5_130_abs01 (Int Int Int Int Int Int Int) Bool)
(declare-fun while_20_1_142_abs01 (Int Int Int Int Int Int Int) Bool)
(declare-fun assign_19_1_104_abs01 (Int Int Int Int Int Int Int) Bool)
(declare-fun assign_16_5_95_abs01 (Int Int Int Int Int Int Int) Bool)
(declare-fun assign_15_5_86_abs01 (Int Int Int Int Int Int Int) Bool)
(declare-fun arrayassign_14_5_77_abs01 (Int Int Int Int Int Int Int) Bool)
(declare-fun while_13_1_98_abs01 (Int Int Int Int Int Int Int) Bool)
(declare-fun assign_11_1_55_abs01 (Int Int Int Int Int Int Int) Bool)
(declare-fun assign_10_1_43_abs01 (Int Int Int Int Int Int Int) Bool)
(declare-fun assign_9_1_37_abs01 (Int Int Int Int Int Int Int) Bool)
(declare-fun end_abs01 (Int Int Int Int Int Int Int) Bool)
(declare-fun start_abs01 (Int Int Int Int Int Int Int) Bool)
(assert (forall ((size Int) (j Int) (i Int) (vabs_f_f Int) (vabs_s_f_f Int) (a_copy_select Int) (a_select Int)) (start_abs01 vabs_f_f a_copy_select vabs_s_f_f a_select size j i)))
(assert (forall ((i Int) (j Int) (size Int) (vabs_0_f_f Int) (vabs_0_s_f_f Int) (a_select Int) (a_copy_select Int)) (=> (start_abs01 vabs_0_f_f a_copy_select vabs_0_s_f_f a_select size j i) (assign_9_1_37_abs01 vabs_0_f_f a_copy_select vabs_0_s_f_f a_select size j i))))
(assert (forall ((i Int) (j Int) (size Int) (vabs_0_f_f Int) (vabs_0_s_f_f Int) (a_select Int) (a_copy_select Int)) (=> (assign_9_1_37_abs01 vabs_0_f_f a_copy_select vabs_0_s_f_f a_select size j i) (assign_10_1_43_abs01 vabs_0_f_f a_copy_select vabs_0_s_f_f a_select size j 1))))
(assert (forall ((i Int) (j Int) (size Int) (vabs_0_f_f Int) (vabs_0_s_f_f Int) (a_select Int) (a_copy_select Int)) (=> (assign_10_1_43_abs01 vabs_0_f_f a_copy_select vabs_0_s_f_f a_select size j i) (assign_11_1_55_abs01 vabs_0_f_f a_copy_select vabs_0_s_f_f a_select size 0 i))))
(assert (forall ((rnd Int) (i Int) (j Int) (size Int) (vabs_0_f_f Int) (vabs_0_s_f_f Int) (a_select Int) (a_copy_select Int)) (=> (assign_11_1_55_abs01 vabs_0_f_f a_copy_select vabs_0_s_f_f a_select size j i) (while_13_1_98_abs01 vabs_0_f_f a_copy_select vabs_0_s_f_f a_select rnd j i))))
(assert (forall ((size Int) (j Int) (i Int) (vabs_0_f_f Int) (vabs_0_s_f_f Int) (a_copy_select Int) (a_select Int)) (=> (and (while_13_1_98_abs01 vabs_0_f_f a_copy_select vabs_0_s_f_f a_select size j i) (< i size)) (arrayassign_14_5_77_abs01 vabs_0_f_f a_copy_select vabs_0_s_f_f a_select size j i))))
(assert (forall ((size Int) (j Int) (i Int) (vabs_0_f_f Int) (vabs_0_s_f_f Int) (a_copy_select Int) (a_select Int)) (=> (and (while_13_1_98_abs01 vabs_0_f_f a_copy_select vabs_0_s_f_f a_select size j i) (not (< i size))) (assign_19_1_104_abs01 vabs_0_f_f a_copy_select vabs_0_s_f_f a_select size j i))))
(assert (forall ((i Int) (j Int) (size Int) (vabs_0_f_f Int) (vabs_0_s_f_f Int) (a_select_0 Int) (a_select Int) (a_copy_select Int)) (=> (and (=> (= i vabs_0_s_f_f) (= a_select a_select_0)) (arrayassign_14_5_77_abs01 vabs_0_f_f a_copy_select vabs_0_s_f_f a_select size j i) (arrayassign_14_5_77_abs01 vabs_0_f_f a_copy_select i a_select_0 size j i)) (assign_15_5_86_abs01 vabs_0_f_f (ite (= i vabs_0_f_f) a_select_0 a_copy_select) vabs_0_s_f_f a_select size j i))))
(assert (forall ((i Int) (j Int) (size Int) (vabs_0_f_f Int) (vabs_0_s_f_f Int) (a_select Int) (a_copy_select Int)) (=> (assign_15_5_86_abs01 vabs_0_f_f a_copy_select vabs_0_s_f_f a_select size j i) (assign_16_5_95_abs01 vabs_0_f_f a_copy_select vabs_0_s_f_f a_select size j (+ i 2)))))
(assert (forall ((i Int) (j Int) (size Int) (vabs_0_f_f Int) (vabs_0_s_f_f Int) (a_select Int) (a_copy_select Int)) (=> (assign_16_5_95_abs01 vabs_0_f_f a_copy_select vabs_0_s_f_f a_select size j i) (while_13_1_98_abs01 vabs_0_f_f a_copy_select vabs_0_s_f_f a_select size (+ j 1) i))))
(assert (forall ((i Int) (j Int) (size Int) (vabs_0_f_f Int) (vabs_0_s_f_f Int) (a_select Int) (a_copy_select Int)) (=> (assign_19_1_104_abs01 vabs_0_f_f a_copy_select vabs_0_s_f_f a_select size j i) (while_20_1_142_abs01 vabs_0_f_f a_copy_select vabs_0_s_f_f a_select size j 0))))
(assert (forall ((size Int) (j Int) (i Int) (vabs_0_f_f Int) (vabs_0_s_f_f Int) (a_copy_select Int) (a_select Int)) (=> (and (while_20_1_142_abs01 vabs_0_f_f a_copy_select vabs_0_s_f_f a_select size j i) (< i size)) (assert_21_5_130_abs01 vabs_0_f_f a_copy_select vabs_0_s_f_f a_select size j i))))
(assert (forall ((size Int) (j Int) (i Int) (vabs_0_f_f Int) (vabs_0_s_f_f Int) (a_copy_select Int) (a_select Int)) (=> (and (while_20_1_142_abs01 vabs_0_f_f a_copy_select vabs_0_s_f_f a_select size j i) (not (< i size))) (end_abs01 vabs_0_f_f a_copy_select vabs_0_s_f_f a_select size j i))))
(assert (forall ((i Int) (j Int) (size Int) (a_select Int) (a_copy_select Int)) (=> (assert_21_5_130_abs01 i a_copy_select j a_select size j i) (= a_copy_select a_select))))
(assert (forall ((i Int) (j Int) (size Int) (vabs_0_f_f Int) (vabs_0_s_f_f Int) (a_select Int) (a_copy_select Int)) (=> (assert_21_5_130_abs01 vabs_0_f_f a_copy_select vabs_0_s_f_f a_select size j i) (assign_22_5_139_abs01 vabs_0_f_f a_copy_select vabs_0_s_f_f a_select size j i))))
(assert (forall ((i Int) (j Int) (size Int) (vabs_0_f_f Int) (vabs_0_s_f_f Int) (a_select Int) (a_copy_select Int)) (=> (assign_22_5_139_abs01 vabs_0_f_f a_copy_select vabs_0_s_f_f a_select size j i) (while_20_1_142_abs01 vabs_0_f_f a_copy_select vabs_0_s_f_f a_select size j (+ i 1)))))
(check-sat)